p tw 603 1213
1 277
1 278
1 412
1 413
1 494
1 495
1 598
1 599
2 228
2 229
3 63
3 305
3 306
3 422
3 423
3 438
3 501
3 502
4 205
4 206
4 434
4 435
4 452
4 453
4 513
4 514
5 539
5 540
6 292
6 293
6 382
6 383
6 453
6 454
6 525
6 526
7 566
7 567
8 582
8 583
9 315
9 316
10 206
10 207
10 383
10 384
10 454
10 455
10 526
10 527
11 207
11 208
12 339
12 340
13 257
13 258
13 391
13 392
13 465
13 466
13 578
13 579
14 220
14 221
14 431
14 432
14 510
14 511
15 299
15 300
16 307
16 308
17 227
17 228
17 550
17 551
18 203
18 204
19 357
19 358
20 225
20 226
20 549
20 550
21 267
21 268
21 436
21 437
21 482
21 483
22 226
22 227
23 251
23 252
24 360
24 361
25 273
25 274
26 332
26 333
27 368
27 369
27 592
27 593
28 209
28 210
29 270
29 271
29 421
29 422
29 486
29 487
29 500
29 501
30 367
30 368
31 324
31 325
32 210
32 211
33 204
33 205
33 381
33 382
33 451
33 452
33 524
33 525
34 340
34 341
35 278
35 279
36 303
36 304
37 289
37 290
38 306
38 307
38 420
38 421
38 499
38 500
39 200
39 201
39 517
39 518
40 312
40 313
40 396
40 397
40 470
40 471
40 541
40 542
41 313
41 314
42 274
42 275
43 290
43 291
44 529
44 530
45 372
45 373
46 256
46 257
47 55
47 301
47 302
47 435
47 514
48 331
48 332
49 316
49 317
49 474
49 475
50 326
50 327
51 583
51 584
52 348
52 349
52 573
52 574
53 240
53 241
54 165
54 319
54 320
54 416
54 479
54 480
55 318
55 319
55 435
55 514
56 211
56 212
57 327
57 328
58 293
58 294
59 341
59 342
59 430
59 431
59 450
59 451
59 509
59 510
60 371
60 372
61 365
61 366
62 263
62 264
62 398
62 399
62 473
62 474
62 586
62 587
63 126
63 191
63 345
63 346
63 438
63 515
63 603
64 298
64 299
64 429
64 430
64 507
64 508
64 531
64 532
65 248
65 249
65 385
65 386
65 457
65 458
65 567
65 568
66 343
66 344
67 224
67 225
67 406
67 407
67 423
67 424
67 487
67 488
67 502
67 503
67 548
67 549
68 284
68 285
69 338
69 339
69 559
69 560
70 335
70 336
70 553
70 554
71 88
71 279
71 280
71 413
71 496
71 599
71 600
72 329
72 330
72 551
72 552
73 325
73 326
73 405
73 406
73 488
73 489
73 547
73 548
74 361
74 362
75 344
75 345
75 569
75 570
76 235
76 236
77 369
77 370
77 489
77 490
78 286
78 287
78 377
78 378
78 424
78 425
78 443
78 444
78 503
78 504
78 521
78 522
79 214
79 215
79 433
79 434
79 462
79 463
79 512
79 513
80 255
80 256
81 297
81 298
82 287
82 288
82 379
82 380
82 445
82 446
82 523
82 524
83 543
83 544
84 358
84 359
85 261
85 262
86 241
86 242
86 426
86 427
86 505
86 506
87 594
87 595
88 142
88 281
88 282
88 413
88 496
88 600
89 250
89 251
90 232
90 233
91 280
91 281
92 359
92 360
93 322
93 323
93 481
93 482
94 314
94 315
95 212
95 213
95 388
95 389
95 459
95 460
95 530
95 531
96 302
96 303
97 337
97 338
97 558
97 559
98 243
98 244
98 563
98 564
99 351
99 352
99 460
99 461
99 574
99 575
100 215
100 216
100 535
100 536
101 244
101 245
101 448
101 449
102 199
102 200
102 374
102 375
102 439
102 440
102 516
102 517
103 362
103 363
104 321
104 322
105 247
105 248
105 565
105 566
106 231
106 232
106 409
106 410
106 492
106 493
106 554
106 555
107 242
107 243
107 380
107 381
107 447
107 448
107 562
107 563
108 534
108 535
109 317
109 318
109 400
109 401
109 476
109 477
109 544
109 545
110 572
110 573
111 288
111 289
112 202
112 203
112 376
112 377
112 442
112 443
112 519
112 520
113 520
113 521
114 291
114 292
115 216
115 217
115 395
115 396
115 469
115 470
115 537
115 538
116 584
116 585
117 264
117 265
117 428
117 429
117 472
117 473
117 508
117 509
118 252
118 253
119 201
119 202
119 375
119 376
119 441
119 442
119 518
119 519
120 219
120 220
120 397
120 398
120 471
120 472
120 542
120 543
121 276
121 277
121 410
121 411
121 493
121 494
121 596
121 597
122 363
122 364
123 245
123 246
123 564
123 565
124 282
124 283
125 272
125 273
125 407
125 408
125 490
125 491
125 593
125 594
126 603
127 308
127 309
127 536
127 537
128 304
128 305
128 393
128 394
128 419
128 420
128 467
128 468
128 498
128 499
128 533
128 534
129 221
129 222
129 402
129 403
129 477
129 478
129 545
129 546
130 223
130 224
130 483
130 484
131 556
131 557
132 352
132 353
132 389
132 390
132 463
132 464
132 576
132 577
133 300
133 301
134 333
134 334
135 254
135 255
136 238
136 239
137 246
137 247
138 259
138 260
139 330
139 331
139 408
139 409
139 415
139 416
139 491
139 492
139 552
139 553
140 580
140 581
141 262
141 263
141 585
141 586
142 147
142 373
142 600
143 356
143 357
144 294
144 295
144 384
144 385
144 455
144 456
144 527
144 528
145 229
145 230
146 236
146 237
146 557
146 558
147 373
147 411
147 412
147 495
147 496
147 597
147 598
148 208
148 209
148 386
148 387
148 456
148 457
148 528
148 529
149 269
149 270
150 283
150 284
150 440
150 441
151 309
151 310
152 217
152 218
153 296
153 297
154 249
154 250
154 568
154 569
155 601
155 602
156 310
156 311
157 353
157 354
157 390
157 391
157 464
157 465
157 577
157 578
158 234
158 235
159 346
159 347
159 387
159 388
159 458
159 459
159 570
159 571
160 336
160 337
161 522
161 523
162 233
162 234
162 555
162 556
163 355
163 356
163 394
163 395
163 468
163 469
163 581
163 582
164 538
164 539
165 342
165 343
165 416
165 449
165 450
166 266
166 267
166 417
166 418
166 480
166 481
167 349
167 350
168 260
168 261
169 237
169 238
169 378
169 379
169 444
169 445
169 561
169 562
170 334
170 335
170 427
170 428
170 506
170 507
171 370
171 371
172 589
172 590
173 258
173 259
174 560
174 561
175 347
175 348
176 320
176 321
177 222
177 223
178 295
178 296
179 350
179 351
179 461
179 462
180 354
180 355
180 392
180 393
180 466
180 467
180 579
180 580
181 271
181 272
182 323
182 324
182 403
182 404
182 484
182 485
182 546
182 547
183 275
183 276
183 595
183 596
184 285
184 286
185 364
185 365
185 401
185 402
185 478
185 479
185 588
185 589
186 575
186 576
187 311
187 312
188 265
188 266
188 399
188 400
188 432
188 433
188 475
188 476
188 511
188 512
188 587
188 588
189 268
189 269
190 253
190 254
190 571
190 572
191 239
191 240
191 425
191 426
191 437
191 438
191 446
191 447
191 504
191 505
191 515
191 602
191 603
192 218
192 219
192 540
192 541
193 328
193 329
194 418
194 419
194 497
194 498
195 213
195 214
195 532
195 533
196 366
196 367
196 404
196 405
196 414
196 415
196 485
196 486
196 590
196 591
197 230
197 231
198 591
198 592
199 200
200 201
201 202
202 203
203 204
204 205
205 206
206 207
207 208
208 209
209 210
210 211
211 212
212 213
213 214
214 215
215 216
216 217
217 218
218 219
219 220
220 221
221 222
222 223
223 224
224 225
225 226
226 227
227 228
228 229
229 230
230 231
231 232
232 233
233 234
234 235
235 236
236 237
237 238
238 239
239 240
240 241
241 242
242 243
243 244
244 245
245 246
246 247
247 248
248 249
249 250
250 251
251 252
252 253
253 254
254 255
255 256
256 257
257 258
258 259
259 260
260 261
261 262
262 263
263 264
264 265
265 266
266 267
267 268
268 269
269 270
270 271
271 272
272 273
273 274
274 275
275 276
276 277
277 278
278 279
279 280
280 281
281 282
282 283
283 284
284 285
285 286
286 287
287 288
288 289
289 290
290 291
291 292
292 293
293 294
294 295
295 296
296 297
297 298
298 299
299 300
300 301
301 302
302 303
303 304
304 305
305 306
306 307
307 308
308 309
309 310
310 311
311 312
312 313
313 314
314 315
315 316
316 317
317 318
318 319
319 320
320 321
321 322
322 323
323 324
324 325
325 326
326 327
327 328
328 329
329 330
330 331
331 332
332 333
333 334
334 335
335 336
336 337
337 338
338 339
339 340
340 341
341 342
342 343
343 344
344 345
345 346
346 347
347 348
348 349
349 350
350 351
351 352
352 353
353 354
354 355
355 356
356 357
357 358
358 359
359 360
360 361
361 362
362 363
363 364
364 365
365 366
366 367
367 368
368 369
369 370
370 371
371 372
372 373
374 375
375 376
376 377
377 378
378 379
379 380
380 381
381 382
382 383
383 384
384 385
385 386
386 387
387 388
388 389
389 390
390 391
391 392
392 393
393 394
394 395
395 396
396 397
397 398
398 399
399 400
400 401
401 402
402 403
403 404
404 405
405 406
406 407
407 408
408 409
409 410
410 411
411 412
412 413
414 415
415 416
417 418
418 419
419 420
420 421
421 422
422 423
423 424
424 425
425 426
426 427
427 428
428 429
429 430
430 431
431 432
432 433
433 434
434 435
436 437
437 438
439 440
440 441
441 442
442 443
443 444
444 445
445 446
446 447
447 448
448 449
449 450
450 451
451 452
452 453
453 454
454 455
455 456
456 457
457 458
458 459
459 460
460 461
461 462
462 463
463 464
464 465
465 466
466 467
467 468
468 469
469 470
470 471
471 472
472 473
473 474
474 475
475 476
476 477
477 478
478 479
479 480
480 481
481 482
482 483
483 484
484 485
485 486
486 487
487 488
488 489
489 490
490 491
491 492
492 493
493 494
494 495
495 496
497 498
498 499
499 500
500 501
501 502
502 503
503 504
504 505
505 506
506 507
507 508
508 509
509 510
510 511
511 512
512 513
513 514
516 517
517 518
518 519
519 520
520 521
521 522
522 523
523 524
524 525
525 526
526 527
527 528
528 529
529 530
530 531
531 532
532 533
533 534
534 535
535 536
536 537
537 538
538 539
539 540
540 541
541 542
542 543
543 544
544 545
545 546
546 547
547 548
548 549
549 550
550 551
551 552
552 553
553 554
554 555
555 556
556 557
557 558
558 559
559 560
560 561
561 562
562 563
563 564
564 565
565 566
566 567
567 568
568 569
569 570
570 571
571 572
572 573
573 574
574 575
575 576
576 577
577 578
578 579
579 580
580 581
581 582
582 583
583 584
584 585
585 586
586 587
587 588
588 589
589 590
590 591
591 592
592 593
593 594
594 595
595 596
596 597
597 598
598 599
599 600
601 602
602 603
